row=10;
column=10;
Board=[|5,6,7,2,2,3,4,8,3,3|2,3,3,3,2,8,2,8,8,6|3,2,2,8,2,8,7,3,6,3|2,2,2,6,7,4,6,4,4,6|2,2,2,7,5,4,5,4,4,5|4,5,5,2,1,1,1,8,8,5|5,5,4,7,4,1,1,1,4,5|5,5,5,1,4,4,7,4,1,1|7,6,5,3,5,3,3,1,1,1|4,7,6,3,6,3,3,1,1,1|];
right = [19,8,29,8,14,9,0,0,0,0];
bottom = [12,8,4,17,0,23,0,7,3,13];
